1	38622
2	26738
3	26136
4	25514
5	23676.0
6	23676.0
7	23676.0
8	23676.0
9	23676.0
10	23676.0
11	23676.0
12	23676.0
13	23676.0
14	23676.0
15	23676.0
16	23676.0
17	23676.0
18	23676.0
19	23676.0
20	23676.0
21	23676.0
22	23676.0
23	23676.0
24	23676.0
25	23676.0
